NAME : mr20
COMMENT : 20-city problem (DISC)
TYPE : TSP
DIMENSION : 20
EDGE_WEIGHT_TYPE : EUC_2D
NODE_COORD_SECTION
1 59 86
2 90 95
3 90 57
4 82 18
5 4 78
6 70 50
7 38 64
8 52 84
9 66 47
10 20 50
11 28 68
12 72 66
13 79 27
14 86 7
15 78 78
16 4 49
17 12 33
18 76 52
19 24 27
20 26 32
EOF
